
Gurobi 8.1.1 (win64) logging started 11/26/19 23:34:58

Changed value of parameter LogFile to logs/miss/rlt/miss-06-15-0.log
   Prev: gurobi.log  Default: 
Changed value of parameter LogToConsole to 0
   Prev: 1  Min: 0  Max: 1  Default: 1
Changed value of parameter TimeLimit to 3600.0
   Prev: 1e+100  Min: 0.0  Max: 1e+100  Default: 1e+100
Optimize a model with 16701 rows, 5671 columns and 39518 nonzeros
Variable types: 0 continuous, 5671 integer (106 binary)
Coefficient statistics:
  Matrix range     [1e+00, 1e+00]
  Objective range  [1e+00, 1e+00]
  Bounds range     [1e+00, 1e+00]
  RHS range        [1e+00, 3e+00]
Found heuristic solution: objective 6.0000000
Presolve time: 0.09s
Presolved: 16701 rows, 5671 columns, 39518 nonzeros
Variable types: 0 continuous, 5671 integer (5671 binary)

Root relaxation: objective 3.235897e+00, 1698 iterations, 0.21 seconds

    Nodes    |    Current Node    |     Objective Bounds      |     Work
 Expl Unexpl |  Obj  Depth IntInf | Incumbent    BestBd   Gap | It/Node Time

     0     0    3.23590    0  571    6.00000    3.23590  46.1%     -    0s
     0     0    3.25000    0  271    6.00000    3.25000  45.8%     -    1s
     0     0    3.35925    0  420    6.00000    3.35925  44.0%     -    2s
     0     0    3.35925    0  417    6.00000    3.35925  44.0%     -    2s
     0     0    3.40869    0  427    6.00000    3.40869  43.2%     -    2s
     0     0    3.40875    0  428    6.00000    3.40875  43.2%     -    3s
     0     0    3.40973    0  410    6.00000    3.40973  43.2%     -    3s
     0     0    3.40993    0  408    6.00000    3.40993  43.2%     -    3s
     0     0    3.41266    0  351    6.00000    3.41266  43.1%     -    3s
     0     0    3.41331    0  330    6.00000    3.41331  43.1%     -    3s
     0     0    3.41418    0  353    6.00000    3.41418  43.1%     -    3s
     0     0    3.41418    0  350    6.00000    3.41418  43.1%     -    3s
     0     0    3.41418    0  372    6.00000    3.41418  43.1%     -    4s
     0     0    3.41422    0  373    6.00000    3.41422  43.1%     -    4s
     0     0    3.41442    0  374    6.00000    3.41442  43.1%     -    4s
     0     0    3.41454    0  355    6.00000    3.41454  43.1%     -    4s
     0     0    3.41477    0  355    6.00000    3.41477  43.1%     -    4s
     0     0    3.41483    0  360    6.00000    3.41483  43.1%     -    4s
     0     0    3.41497    0  359    6.00000    3.41497  43.1%     -    4s
     0     0    3.41501    0  376    6.00000    3.41501  43.1%     -    4s
     0     0    3.41549    0  395    6.00000    3.41549  43.1%     -    4s
     0     0    3.41550    0  397    6.00000    3.41550  43.1%     -    4s
     0     0    3.41619    0  364    6.00000    3.41619  43.1%     -    5s
     0     0    3.41638    0  377    6.00000    3.41638  43.1%     -    5s
     0     0    3.41662    0  373    6.00000    3.41662  43.1%     -    5s
     0     0    3.41678    0  385    6.00000    3.41678  43.1%     -    5s
     0     0    3.41698    0  378    6.00000    3.41698  43.1%     -    5s
     0     0    3.41711    0  397    6.00000    3.41711  43.0%     -    5s
     0     0    3.41730    0  399    6.00000    3.41730  43.0%     -    5s
     0     0    3.41744    0  386    6.00000    3.41744  43.0%     -    5s
     0     0    3.41782    0  371    6.00000    3.41782  43.0%     -    6s
     0     0    3.41786    0  371    6.00000    3.41786  43.0%     -    6s
     0     0    3.41839    0  374    6.00000    3.41839  43.0%     -    6s
     0     0    3.41847    0  391    6.00000    3.41847  43.0%     -    6s
     0     0    3.41891    0  387    6.00000    3.41891  43.0%     -    6s
     0     0    3.41898    0  376    6.00000    3.41898  43.0%     -    6s
     0     0    3.41944    0  381    6.00000    3.41944  43.0%     -    6s
     0     0    3.41946    0  380    6.00000    3.41946  43.0%     -    6s
     0     0    3.42035    0  356    6.00000    3.42035  43.0%     -    6s
     0     0    3.42057    0  354    6.00000    3.42057  43.0%     -    6s
     0     0    3.42135    0  344    6.00000    3.42135  43.0%     -    7s
     0     0    3.42160    0  352    6.00000    3.42160  43.0%     -    7s
     0     0    3.42185    0  351    6.00000    3.42185  43.0%     -    7s
     0     0    3.42192    0  362    6.00000    3.42192  43.0%     -    7s
     0     0    3.42202    0  367    6.00000    3.42202  43.0%     -    7s
     0     0    3.42206    0  366    6.00000    3.42206  43.0%     -    7s
     0     0    3.42318    0  383    6.00000    3.42318  42.9%     -    7s
     0     0    3.42322    0  384    6.00000    3.42322  42.9%     -    8s
     0     0    3.42386    0  400    6.00000    3.42386  42.9%     -    8s
     0     0    3.42418    0  397    6.00000    3.42418  42.9%     -    8s
     0     0    3.42453    0  394    6.00000    3.42453  42.9%     -    8s
     0     0    3.42474    0  383    6.00000    3.42474  42.9%     -    8s
     0     0    3.42552    0  368    6.00000    3.42552  42.9%     -    8s
     0     0    3.42562    0  377    6.00000    3.42562  42.9%     -    8s
     0     0    3.42671    0  383    6.00000    3.42671  42.9%     -    8s
     0     0    3.42675    0  390    6.00000    3.42675  42.9%     -    8s
     0     0    3.42769    0  395    6.00000    3.42769  42.9%     -    9s
     0     0    3.42784    0  365    6.00000    3.42784  42.9%     -    9s
     0     0    3.42866    0  360    6.00000    3.42866  42.9%     -    9s
     0     0    3.42894    0  359    6.00000    3.42894  42.9%     -    9s
     0     0    3.42973    0  379    6.00000    3.42973  42.8%     -    9s
     0     0    3.42988    0  367    6.00000    3.42988  42.8%     -    9s
     0     0    3.43036    0  348    6.00000    3.43036  42.8%     -    9s
     0     0    3.43039    0  356    6.00000    3.43039  42.8%     -    9s
     0     0    3.43075    0  372    6.00000    3.43075  42.8%     -   10s
     0     0    3.43075    0  370    6.00000    3.43075  42.8%     -   10s
     0     2    3.43075    0  365    6.00000    3.43075  42.8%     -   28s
    19    20    3.75913    9  218    6.00000    3.44715  42.5%   437   30s
   125   101    4.79825   30  443    6.00000    3.67370  38.8%   232   35s
   248   146    4.51674   13  669    6.00000    3.89190  35.1%   191   40s
   366   179    4.65670   21  423    6.00000    4.10324  31.6%   186   45s
   515   246    4.69593   25  527    6.00000    4.13193  31.1%   183   51s
   669   338    4.45032    9  710    6.00000    4.20758  29.9%   170   55s
   747   375    4.82407   29  370    6.00000    4.23289  29.5%   173   61s
   750   377    4.61161   13  359    6.00000    4.23289  29.5%   172   81s
   758   382    4.48458   16  370    6.00000    4.23289  29.5%   170   85s
   761   387    4.23289   12  292    6.00000    4.23289  29.5%   177   93s
   767   385    4.23289   14  289    6.00000    4.23289  29.5%   180   95s
   776   387    4.23289   16  232    6.00000    4.23289  29.5%   184  100s
   788   393    4.23289   19  175    6.00000    4.23289  29.5%   191  105s
   818   399    4.23289   25  187    6.00000    4.23289  29.5%   194  111s
   865   389    5.00000   32  140    6.00000    4.23289  29.5%   192  115s
   940   373     cutoff   39         6.00000    4.23289  29.5%   190  121s
   975   362    4.32210   20  753    6.00000    4.23289  29.5%   188  125s
  1050   375     cutoff   53         6.00000    4.23289  29.5%   182  130s
  1109   384     cutoff   23         6.00000    4.23289  29.5%   180  135s
  1285   386    4.78809   29  312    6.00000    4.23289  29.5%   171  141s
  1384   402    4.39175   23  534    6.00000    4.25157  29.1%   169  145s
  1488   432    4.44525   24  597    6.00000    4.28099  28.7%   166  150s
  1670   426    4.48214   25  647    6.00000    4.33468  27.8%   160  155s
  1873   455    4.52055   29  312    6.00000    4.39313  26.8%   156  169s
  1885   445    4.60294   31  209    6.00000    4.40625  26.6%   156  170s
  2044   463 infeasible   36         6.00000    4.44444  25.9%   152  175s
  2268   350     cutoff   32         6.00000    4.57117  23.8%   149  180s

Cutting planes:
  Gomory: 4
  MIR: 2
  Zero half: 41

Explored 2676 nodes (368068 simplex iterations) in 183.33 seconds
Thread count was 4 (of 4 available processors)

Solution count 1: 6 

Optimal solution found (tolerance 1.00e-04)
Best objective 6.000000000000e+00, best bound 6.000000000000e+00, gap 0.0000%
